1 100 667
2 2 1 4 0 2 5 5 2 4
2
4 9
0 40.0 50.0 0.0 0.0 0 240
2 25.0 85.0 10.0 20.0 71 191 87 0 0 0 0 0 1 0 1 1 0
3 22.0 75.0 10.0 30.0 30 150 87 0 0 0 1 0 1 1 0 0 1
4 22.0 85.0 10.0 10.0 64 184 89 0 1 0 0 0 0 0 0 0 0
5 20.0 80.0 10.0 40.0 151 161 44 1 0 0 0 0 0 0 1 1 0
6 20.0 85.0 10.0 20.0 40 160 28 0 1 0 0 0 0 1 0 0 0
7 18.0 75.0 10.0 20.0 96 123 49 1 0 0 1 0 0 1 0 0 1
8 15.0 75.0 10.0 20.0 35 155 85 0 0 0 0 0 0 0 0 0 1
9 15.0 80.0 10.0 10.0 101 111 70 0 0 0 0 1 0 0 0 0 1
10 10.0 35.0 10.0 20.0 101 111 36 0 0 0 0 0 1 0 0 0 0
11 10.0 40.0 10.0 30.0 123 144 95 0 0 0 0 0 0 1 0 0 0
12 8.0 40.0 10.0 40.0 69 79 73 0 0 1 0 1 1 1 0 1 0
13 8.0 45.0 10.0 20.0 32 152 38 0 0 0 1 0 0 0 1 0 0
14 5.0 35.0 10.0 10.0 152 162 7 0 0 1 1 1 0 0 1 0 0
15 5.0 45.0 10.0 10.0 35 117 3 0 0 0 0 1 0 0 0 0 0
16 2.0 40.0 10.0 20.0 68 78 79 0 1 0 1 0 0 0 0 0 0
17 0.0 40.0 10.0 20.0 59 114 23 0 0 0 0 1 0 0 0 0 0
18 0.0 45.0 10.0 20.0 147 180 22 0 0 0 0 0 0 0 0 1 0
19 44.0 5.0 10.0 20.0 79 124 36 1 1 0 0 0 1 0 1 0 0
20 42.0 10.0 10.0 40.0 58 115 35 0 0 1 0 0 0 0 0 0 0
21 42.0 15.0 10.0 10.0 111 162 81 0 0 0 1 0 0 0 1 0 0
22 40.0 5.0 10.0 10.0 45 165 97 0 1 0 0 0 1 1 0 0 0
23 40.0 15.0 10.0 40.0 94 119 37 0 0 0 0 0 0 1 0 1 0
24 38.0 5.0 10.0 30.0 75 85 14 0 1 1 0 1 1 0 0 0 0
25 38.0 15.0 10.0 10.0 128 194 57 1 0 1 0 1 0 0 0 0 0
26 35.0 5.0 10.0 20.0 171 181 72 0 0 0 1 0 0 0 0 0 0
27 95.0 30.0 10.0 30.0 58 171 89 1 0 1 0 0 0 0 1 0 0
28 95.0 35.0 10.0 20.0 60 93 14 1 0 0 0 1 0 0 1 1 0
29 92.0 30.0 10.0 10.0 55 120 74 0 1 1 0 0 1 0 0 0 0
30 90.0 35.0 10.0 10.0 52 112 63 1 0 1 0 1 0 0 0 0 1
31 88.0 30.0 10.0 10.0 75 102 30 0 0 0 1 0 0 0 0 0 0
32 88.0 35.0 10.0 20.0 50 170 83 0 0 0 0 0 0 0 0 0 1
33 87.0 30.0 10.0 10.0 116 175 31 0 1 0 1 0 0 1 0 1 0
34 85.0 25.0 10.0 10.0 51 85 1 0 0 0 0 0 0 0 1 0 0
35 85.0 35.0 10.0 30.0 62 182 87 0 0 1 1 0 0 0 0 1 0
36 67.0 85.0 10.0 20.0 138 169 79 0 0 0 1 0 0 0 0 1 1
37 65.0 85.0 10.0 40.0 43 78 43 0 0 0 0 0 0 0 0 1 0
38 65.0 82.0 10.0 10.0 69 189 82 0 0 1 0 0 0 0 0 1 1
39 62.0 80.0 10.0 30.0 85 95 53 0 0 0 0 0 1 0 1 0 1
40 60.0 80.0 10.0 10.0 36 74 41 0 0 0 0 0 1 0 0 0 0
41 60.0 85.0 10.0 30.0 87 112 71 1 0 0 0 0 0 0 0 0 1
42 58.0 75.0 10.0 20.0 92 121 46 0 0 0 0 0 1 1 0 0 0
43 55.0 80.0 10.0 10.0 33 66 66 0 0 0 1 0 1 0 0 1 1
44 55.0 85.0 10.0 20.0 117 168 81 0 0 1 0 0 0 1 0 1 0
45 55.0 82.0 10.0 10.0 74 84 58 0 0 0 0 0 0 1 0 0 0
46 20.0 82.0 10.0 10.0 37 72 18 0 0 0 1 0 0 1 0 0 0
47 18.0 80.0 10.0 10.0 98 157 22 0 0 0 0 0 0 0 0 1 0
48 2.0 45.0 10.0 10.0 38 109 7 0 0 0 0 0 0 0 1 0 0
49 42.0 5.0 10.0 10.0 64 184 14 0 0 0 1 0 0 0 1 1 0
50 42.0 12.0 10.0 10.0 109 128 46 0 0 0 1 0 0 0 1 0 0
51 72.0 35.0 10.0 30.0 71 191 8 0 0 0 0 0 0 0 1 0 1
52 55.0 20.0 10.0 19.0 69 126 46 0 0 1 0 0 0 0 0 0 0
53 25.0 30.0 10.0 3.0 25 145 35 0 0 1 0 1 0 1 0 0 1
54 20.0 50.0 10.0 5.0 101 111 52 0 0 0 0 0 1 0 0 0 0
55 55.0 60.0 10.0 16.0 127 180 79 0 0 0 0 0 0 0 0 0 1
56 30.0 60.0 10.0 16.0 150 160 23 0 0 1 0 0 0 0 1 0 1
57 50.0 35.0 10.0 19.0 130 159 78 0 0 0 0 0 0 0 1 0 1
58 30.0 25.0 10.0 23.0 82 139 51 0 0 1 0 0 0 1 0 1 0
59 15.0 10.0 10.0 20.0 172 182 86 0 0 0 0 0 1 0 0 0 0
60 10.0 20.0 10.0 19.0 42 162 66 0 0 0 0 0 1 0 0 0 0
61 15.0 60.0 10.0 17.0 137 202 88 0 0 0 0 0 0 1 1 0 0
62 45.0 65.0 10.0 9.0 55 106 36 0 0 0 1 0 0 0 1 0 0
63 65.0 35.0 10.0 3.0 62 72 13 0 1 0 0 1 0 0 0 0 0
64 65.0 20.0 10.0 6.0 39 108 19 0 0 0 0 0 0 1 0 0 1
65 45.0 30.0 10.0 17.0 53 82 5 1 0 0 1 0 0 0 0 1 1
66 35.0 40.0 10.0 16.0 11 43 75 0 0 0 1 0 0 0 1 0 0
67 41.0 37.0 10.0 16.0 134 161 76 0 0 0 1 0 1 0 0 0 0
68 64.0 42.0 10.0 9.0 80 90 91 0 0 0 0 0 1 0 0 0 0
69 40.0 60.0 10.0 21.0 144 173 44 0 0 0 0 1 0 0 0 1 0
70 31.0 52.0 10.0 27.0 51 61 99 0 0 0 1 0 0 1 0 0 0
71 35.0 69.0 10.0 23.0 172 210 58 0 1 1 0 0 0 0 1 0 0
72 65.0 55.0 10.0 14.0 52 107 30 0 0 0 0 1 0 0 0 0 0
73 63.0 65.0 10.0 8.0 27 147 9 0 1 1 0 0 0 0 0 0 0
74 2.0 60.0 10.0 5.0 65 118 19 0 1 0 0 1 0 0 1 0 0
75 20.0 20.0 10.0 8.0 151 161 63 0 0 0 0 0 0 0 0 0 1
76 5.0 5.0 10.0 16.0 57 172 95 0 0 0 0 0 0 0 0 1 0
77 60.0 12.0 10.0 31.0 85 95 26 0 0 0 1 0 0 1 1 1 0
78 23.0 3.0 10.0 7.0 163 173 50 0 1 0 0 0 0 0 1 0 0
79 8.0 56.0 10.0 27.0 90 119 35 0 0 0 0 0 1 0 0 0 0
80 6.0 68.0 10.0 30.0 99 109 99 0 1 0 0 0 0 0 1 0 1
81 47.0 47.0 10.0 13.0 190 222 59 0 0 0 0 0 1 0 1 0 0
82 49.0 58.0 10.0 10.0 80 121 30 1 1 1 0 0 0 0 0 0 1
83 27.0 43.0 10.0 9.0 14 134 38 0 0 0 0 0 0 0 1 0 1
84 37.0 31.0 10.0 14.0 19 139 59 0 0 0 0 0 1 0 0 0 0
85 57.0 29.0 10.0 18.0 106 116 28 0 1 0 0 0 0 0 0 0 0
86 63.0 23.0 10.0 2.0 42 162 72 0 1 0 0 0 0 0 0 0 0
87 21.0 24.0 10.0 28.0 77 126 81 1 0 0 0 0 0 0 0 0 0
88 12.0 24.0 10.0 13.0 100 110 18 0 0 0 0 0 1 0 0 0 1
89 24.0 58.0 10.0 19.0 67 96 17 0 0 0 0 0 0 1 0 0 0
90 67.0 5.0 10.0 25.0 105 177 16 0 0 1 0 1 0 0 0 0 1
91 37.0 47.0 10.0 6.0 74 127 63 0 0 0 0 0 0 1 0 0 1
92 49.0 42.0 10.0 13.0 97 217 92 0 0 0 0 0 0 1 0 0 1
93 53.0 43.0 10.0 14.0 15 25 19 0 0 1 0 0 0 0 0 0 0
94 61.0 52.0 10.0 3.0 173 208 79 0 0 1 1 0 0 0 0 1 1
95 57.0 48.0 10.0 23.0 50 170 46 0 0 0 1 0 0 0 0 1 0
96 56.0 37.0 10.0 6.0 20 140 88 0 1 0 0 0 0 1 0 0 0
97 55.0 54.0 10.0 26.0 87 207 18 0 0 0 0 0 0 0 1 0 1
98 4.0 18.0 10.0 35.0 112 157 39 0 0 0 0 0 1 0 0 0 0
99 26.0 52.0 10.0 9.0 14 134 48 0 0 0 0 0 0 1 0 1 0
100 26.0 35.0 10.0 15.0 87 97 0 1 0 0 0 0 0 0 0 0 0
101 31.0 67.0 10.0 3.0 200 210 47 0 0 0 0 0 0 0 0 1 0